Route #1: 3 35 49 41 50 10 34 13 28 38 21 31
Route #2: 45 14 24 36 11 23 39 4
Route #3: 32 15 44 12 17 25 37
Route #4: 8 26 48 27 19 5
Route #5: 7 47 42 46 40 18
Route #6: 33 30 20 29 2
Route #7: 16 9 43 22
Route #8: 6
cost 1426
